p tdp 21 42
1 9
1 15
1 18
1 20
2 10
2 12
2 15
2 19
3 4
3 8
3 11
3 21
4 13
4 15
4 16
5 10
5 17
5 20
5 21
6 9
6 14
6 16
6 21
7 8
7 13
7 14
7 17
8 9
8 19
9 10
10 13
11 12
11 14
11 20
12 17
12 18
13 18
14 15
16 17
16 19
18 21
19 20
